13
0  41  25  63  37  18  52  29  48  12  33  21  57
19  0  55  31  44  28  63  12  40  22  58  14  36
47  16  0  38  27  55  13  41  24  62  31  19  50
25  57  22  0  44  30  49  14  37  18  41  26  35
36  29  61  12  0  47  20  55  33  19  58  27  40
14  42  17  53  28  0  39  23  61  32  18  46  21
52  11  43  25  36  29  0  55  18  37  49  12  40
31  24  54  21  50  15  28  0  45  26  33  19  47
48  19  35  57  23  41  12  50  0  28  36  14  59
13  44  21  36  18  49  26  38  29  0  57  32  41
37  12  48  25  56  21  39  17  45  23  0  54  28
22  31  15  47  20  38  11  29  18  46  33  0  55
49  25  37  19  41  13  45  21  58  27  39  12  0